n_res = 7;
rcap = [24, 26, 28, 23, 18, 41, 50];
rtype = [1, 1, 1, 1, 1, 2, 2];
n_tasks = 16;
modes = [ {1, 2, 3}, {4, 5, 6}, {7, 8, 9}, {10, 11, 12}, {13, 14, 15}, {16, 17, 18}, {19, 20, 21}, {22, 23, 24}, {25, 26, 27}, {28, 29, 30}, {31, 32, 33}, {34, 35, 36}, {37, 38, 39}, {40, 41, 42}, {43, 44, 45}, {46, 47, 48} ];
succ = [ {5, 7, 10}, {7, 15, 16}, {4, 8, 9}, {10, 12}, {6, 8, 11}, {14}, {14}, {12, 13, 14}, {11, 13}, {13, 16}, {12}, {15, 16}, {15}, {}, {}, {} ];
n_opt = 48;
dur = [1, 8, 8, 1, 3, 7, 1, 3, 8, 2, 3, 5, 1, 3, 4, 3, 4, 4, 1, 5, 10, 1, 8, 10, 1, 4, 8, 3, 6, 7, 3, 5, 7, 1, 6, 6, 2, 4, 10, 2, 5, 7, 3, 6, 8, 1, 2, 3];
rreq = [|  3,  3,  2,  1,  1,  1,  7,  3,  1,  9,  8,  8,  5,  5,  3,  8,  8,  8,  9,  6,  3,  9,  6,  5,  4,  4,  3,  4,  4,  3,  3,  2,  2,  4,  3,  4,  7,  6,  5,  5,  3,  1,  9,  7,  2,  6,  5,  4
        | 10,  7,  3,  6,  6,  5, 10,  9,  9,  9,  8,  8,  6,  4,  2,  6,  2,  3,  3,  3,  3,  9,  7,  4,  3,  3,  2,  8,  6,  2,  8,  7,  7,  6,  5,  5,  8,  6,  2,  7,  7,  7,  7,  5,  1,  2,  2,  1
        |  4,  2,  4,  9,  9,  9,  5,  5,  4,  9,  6,  5,  6,  3,  1,  5,  5,  4,  3,  2,  2, 10,  9,  9,  3,  2,  2,  4,  4,  4, 10,  9,  8,  6,  6,  6,  9,  8,  8,  5,  4,  3,  4,  2,  1,  4,  3,  3
        |  6,  5,  6,  4,  3,  3, 10,  7,  3,  8,  8,  7,  5,  4,  2,  8,  3,  4,  5,  4,  4,  6,  3,  2,  2,  2,  1,  7,  7,  6,  6,  6,  5,  4,  3,  4,  7,  7,  3,  4,  4,  3,  6,  6,  3,  5,  4,  4
        |  7,  5,  5,  6,  6,  5,  4,  4,  3,  5,  5,  4,  6,  6,  6,  7,  6,  6,  5,  4,  4,  5,  5,  4,  6,  4,  2,  7,  6,  6,  5,  4,  4,  6,  5,  4,  4,  2,  1,  9,  8,  7,  4,  3,  3,  6,  4,  3
        |  0,  0,  0,  8,  0,  7,  0,  0,  0,  0,  8,  5,  0,  8,  0,  3,  2,  2,  6,  5,  0,  5,  0,  4,  0,  0,  7,  0,  0,  4, 10,  8,  0,  4,  3,  3,  5,  0,  0,  0,  7,  0,  0,  2,  0,  0,  0,  0
        |  3,  2,  1,  0,  8,  0,  6,  5,  5,  6,  0,  0,  7,  0,  7,  0,  0,  0,  0,  0,  5,  0, 10,  0,  6,  3,  0,  9,  7,  0,  0,  0,  8,  0,  0,  0,  0,  6,  5,  4,  0,  3,  3,  0,  3,  9,  7,  3 |];
